(declare-const c_0 Real)
(declare-const c_1 Real)
(declare-const c_2 Real)
(declare-const c_3 Real)
(declare-const c_4 Real)
(declare-const c_5 Real)
(declare-const c_6 Real)
(declare-const c_7 Real)
(declare-const c_8 Real)
(declare-const c_9 Real)
(declare-const c_10 Real)
(declare-const c_11 Real)
(declare-const s_0 Real)
(declare-const s_1 Real)
(declare-const s_2 Real)
(declare-const s_3 Real)
(declare-const s_4 Real)
(declare-const s_5 Real)
(declare-const s_6 Real)
(declare-const s_7 Real)
(declare-const s_8 Real)
(declare-const s_9 Real)
(declare-const s_10 Real)
(declare-const s_11 Real)
(assert (forall ((temp Real) (bob Real) (samantha Real) ) (=> (and (>= (+ (* 1024 1) (* 1 temp ) ) 0) (>= (+ (* 1023 1) (* (- 1) temp ) ) 0) (>= (+ (* 1024 1) (* 1 bob ) ) 0) (>= (+ (* 1023 1) (* (- 1) bob ) ) 0) (>= (+ (* 1024 1) (* 1 samantha ) ) 0) (>= (+ (* 1023 1) (* (- 1) samantha ) ) 0) ) (>= (+ (* 1 bob s_1 ) (* 1 s_0 ) (* 1 s_2 samantha ) (* 1 s_3 temp ) ) 0) )))
(assert (forall ((temp Real) (bob Real) (samantha Real) ) (=> (and (>= (+ (* 1024 1) (* 1 temp ) ) 0) (>= (+ (* 1023 1) (* (- 1) temp ) ) 0) (>= (+ (* 1024 1) (* 1 bob ) ) 0) (>= (+ (* 1023 1) (* (- 1) bob ) ) 0) (>= (+ (* 1024 1) (* 1 samantha ) ) 0) (>= (+ (* 1023 1) (* (- 1) samantha ) ) 0) ) (>= (+ (* 1 bob c_1 ) (* 1 c_0 ) (* 1 c_2 samantha ) (* 1 c_3 temp ) ) 0) )))
(assert (forall ((temp Real) (bob Real) (samantha Real) ) (=> (and (>= (+ (* 1023 1) (* (- 1) samantha ) ) 0) (>= (+ (* 1024 1) (* 1 samantha ) ) 0) (>= (+ (* 1023 1) (* (- 1) bob ) ) 0) (>= (+ (* 1024 1) (* 1 bob ) ) 0) (>= (+ (* 1023 1) (* (- 1) temp ) ) 0) (>= (+ (* 1024 1) (* 1 temp ) ) 0) (>= (+ (* 1 bob s_1 ) (* 1 s_0 ) (* 1 s_2 samantha ) (* 1 s_3 temp ) ) 0) ) (>= (+ (* 1 s_4 ) (* 13 s_5 ) (* 17 s_6 ) (* 1 s_7 temp ) ) 0) )))
(assert (forall ((temp Real) (bob Real) (samantha Real) ) (=> (and (>= (+ (* 1023 1) (* (- 1) samantha ) ) 0) (>= (+ (* 1024 1) (* 1 samantha ) ) 0) (>= (+ (* 1023 1) (* (- 1) bob ) ) 0) (>= (+ (* 1024 1) (* 1 bob ) ) 0) (>= (+ (* 1023 1) (* (- 1) temp ) ) 0) (>= (+ (* 1024 1) (* 1 temp ) ) 0) (>= (+ (* 1 bob s_1 ) (* 1 s_0 ) (* 1 s_2 samantha ) (* 1 s_3 temp ) ) 0) ) (>= (+ (* 1 c_4 ) (* 13 c_5 ) (* 17 c_6 ) (* 1 c_7 temp ) ) 0) )))
(assert (forall ((temp Real) (bob Real) (samantha Real) ) (=> (and (>= (+ (* 1023 1) (* (- 1) samantha ) ) 0) (>= (+ (* 1024 1) (* 1 samantha ) ) 0) (>= (+ (* 1023 1) (* (- 1) bob ) ) 0) (>= (+ (* 1024 1) (* 1 bob ) ) 0) (>= (+ (* 1023 1) (* (- 1) temp ) ) 0) (>= (+ (* 1024 1) (* 1 temp ) ) 0) (>= (+ (* 1 bob s_1 ) (* 1 s_0 ) (* 1 s_2 samantha ) (* 1 s_3 temp ) ) 0) ) (>= (+ (* (- 1) 1) (* 1 bob c_1 ) (* 1 c_0 ) (* 1 c_2 samantha ) (* 1 c_3 temp ) (* (- 1) c_4 ) (* (- 13) c_5 ) (* (- 17) c_6 ) (* (- 1) c_7 temp ) ) 0) )))
(assert (forall ((temp Real) (bob Real) (samantha Real) ) (=> (and (>= (+ (* 99 1) (* (- 1) bob ) (* (- 1) samantha ) ) 0) (>= (+ (* (- 13533) 1) (* 1037 samantha ) (* 4 temp ) ) 0) (>= (+ (* 17 1) (* (- 1) samantha ) ) 0) (>= (+ (* (- 6539) 1) (* 505 samantha ) (* (- 2) temp ) ) 0) (>= (+ (* 30 1) (* (- 1) bob ) (* (- 1) samantha ) ) 0) (>= (+ (* (- 30) 1) (* 1 bob ) (* 1 samantha ) ) 0) (>= (+ (* 1 bob s_5 ) (* 1 s_4 ) (* 1 s_6 samantha ) (* 1 s_7 temp ) ) 0) ) (>= (+ (* 1 bob s_6 ) (* 1 bob s_7 ) (* 1 s_4 ) (* 1 s_5 samantha ) ) 0) )))
(assert (forall ((temp Real) (bob Real) (samantha Real) ) (=> (and (>= (+ (* 99 1) (* (- 1) bob ) (* (- 1) samantha ) ) 0) (>= (+ (* (- 13533) 1) (* 1037 samantha ) (* 4 temp ) ) 0) (>= (+ (* 17 1) (* (- 1) samantha ) ) 0) (>= (+ (* (- 6539) 1) (* 505 samantha ) (* (- 2) temp ) ) 0) (>= (+ (* 30 1) (* (- 1) bob ) (* (- 1) samantha ) ) 0) (>= (+ (* (- 30) 1) (* 1 bob ) (* 1 samantha ) ) 0) (>= (+ (* 1 bob s_5 ) (* 1 s_4 ) (* 1 s_6 samantha ) (* 1 s_7 temp ) ) 0) ) (>= (+ (* 1 bob c_6 ) (* 1 bob c_7 ) (* 1 c_4 ) (* 1 c_5 samantha ) ) 0) )))
(assert (forall ((temp Real) (bob Real) (samantha Real) ) (=> (and (>= (+ (* 99 1) (* (- 1) bob ) (* (- 1) samantha ) ) 0) (>= (+ (* (- 13533) 1) (* 1037 samantha ) (* 4 temp ) ) 0) (>= (+ (* 17 1) (* (- 1) samantha ) ) 0) (>= (+ (* (- 6539) 1) (* 505 samantha ) (* (- 2) temp ) ) 0) (>= (+ (* 30 1) (* (- 1) bob ) (* (- 1) samantha ) ) 0) (>= (+ (* (- 30) 1) (* 1 bob ) (* 1 samantha ) ) 0) (>= (+ (* 1 bob s_5 ) (* 1 s_4 ) (* 1 s_6 samantha ) (* 1 s_7 temp ) ) 0) ) (>= (+ (* (- 1) 1) (* 1 bob c_5 ) (* (- 1) bob c_6 ) (* (- 1) bob c_7 ) (* (- 1) c_5 samantha ) (* 1 c_6 samantha ) (* 1 c_7 temp ) ) 0) )))
(assert (forall ((temp Real) (bob Real) (samantha Real) ) (=> (and (>= (+ (* (- 100) 1) (* 1 bob ) (* 1 samantha ) ) 0) (>= (+ (* (- 13533) 1) (* 1037 samantha ) (* 4 temp ) ) 0) (>= (+ (* 17 1) (* (- 1) samantha ) ) 0) (>= (+ (* (- 6539) 1) (* 505 samantha ) (* (- 2) temp ) ) 0) (>= (+ (* 30 1) (* (- 1) bob ) (* (- 1) samantha ) ) 0) (>= (+ (* (- 30) 1) (* 1 bob ) (* 1 samantha ) ) 0) (>= (+ (* 1 bob s_5 ) (* 1 s_4 ) (* 1 s_6 samantha ) (* 1 s_7 temp ) ) 0) ) (>= (+ (* 1 bob s_9 ) (* 1 s_10 samantha ) (* 1 s_11 temp ) (* 1 s_8 ) ) 0) )))
(assert (forall ((temp Real) (bob Real) (samantha Real) ) (=> (and (>= (+ (* (- 100) 1) (* 1 bob ) (* 1 samantha ) ) 0) (>= (+ (* (- 13533) 1) (* 1037 samantha ) (* 4 temp ) ) 0) (>= (+ (* 17 1) (* (- 1) samantha ) ) 0) (>= (+ (* (- 6539) 1) (* 505 samantha ) (* (- 2) temp ) ) 0) (>= (+ (* 30 1) (* (- 1) bob ) (* (- 1) samantha ) ) 0) (>= (+ (* (- 30) 1) (* 1 bob ) (* 1 samantha ) ) 0) (>= (+ (* 1 bob s_5 ) (* 1 s_4 ) (* 1 s_6 samantha ) (* 1 s_7 temp ) ) 0) ) (>= (+ (* 1 bob c_9 ) (* 1 c_10 samantha ) (* 1 c_11 temp ) (* 1 c_8 ) ) 0) )))

(check-sat)
(get-model)
